 &CONTROL
    calculation = 'scf',
    disk_io='low',
    tprnfor=.true.,
    nstep = 2000,
    restart_mode='from_scratch',
     prefix='full-',
    outdir='./',        
   pseudo_dir='/home/pseudopotentials/',  
 /


&system
    ibrav = 0, a=29.80, 
    nat= 60, ntyp= 1,
    ecutwfc = 30d0,
    nbnd = 185, 
    input_dft = B3LYP ,
    ecutfock = 40 ,
/

&electrons
    startingwfc='atomic',
    conv_thr = 1.0e-8,
    mixing_beta = 0.6,
    mixing_mode = 'plain',
    diagonalization = 'david'
/

ATOMIC_SPECIES
C   12.0107   C.blyp-hgh.UPF

ATOMIC_POSITIONS { angstrom }
C        2.260776881   0.631315106   2.713910513
C        3.180181372   0.203969087   1.651262832
C        1.370194152  -0.303979531   3.300606385
C        3.178262167  -1.144928186   1.210952476
C        3.279499500  -1.450138855  -0.222543951
C        3.283048587   1.296416562   0.674160572
C        3.380623150   1.001629114  -0.710549172
C        3.378137066  -0.395331001  -1.166721094
C       -0.467838064   1.392569145   3.277155038
C        0.454344840   2.362215617   2.670761696
C       -0.017925009   0.083020353   3.586641213
C        1.794993329   1.987387374   2.394169785
C        2.426354088   2.398173288   1.133216573
C       -0.301546846   3.158328692   1.694178279
C        0.308418122   3.556428783   0.476604643
C        1.696361098   3.168485619   0.191156544
C       -2.158504513  -0.883389115   2.725496738
C       -2.624830270   0.472519523   2.405848510
C       -0.878327365  -1.074044170   3.306095143
C       -1.794074062   1.590918646   2.676630253
C       -1.690854715   2.682079658   1.698254010
C       -3.383037662   0.407012886   1.149601594
C       -3.284705907   1.461904913   0.205422995
C       -2.423065278   2.618297220   0.484587055
C       -0.475202017  -3.048016779   1.824311057
C       -1.801588223  -2.851253242   1.224789689
C       -0.021743557  -2.175745190   2.847233697
C       -2.629169891  -1.787273818   1.667677479
C       -3.385216471  -0.989828258   0.693000315
C       -1.701060277  -3.157121882  -0.208342135
C       -2.431154753  -2.387167190  -1.150766524
C       -3.287798707  -1.284937743  -0.691775087
C        2.255935319  -2.113455486   1.817812358
C        1.786444352  -3.017123732   0.759368842
C        1.367340116  -1.699646860   2.843755858
C        0.444342383  -3.477281123   0.762850038
C       -0.312958910  -3.544608998  -0.493705704
C        2.418144388  -2.606578453  -0.501484155
C        1.686522422  -2.670869674  -1.715595609
C        0.297184951  -3.147424800  -1.711694479
C       -2.264759123  -0.619905326  -2.730559394
C       -1.799363706  -1.976279231  -2.411222531
C       -0.458652783  -2.350825525  -2.687800174
C       -1.373899325   0.315489416  -3.316610199
C       -2.260090739   2.124366167  -1.833824050
C       -3.183026083   1.156406518  -1.227698142
C       -3.184587069  -0.192428616  -1.668280964
C       -1.371540105   1.711300886  -2.859895737
C        0.470704277   3.060426043  -1.841197596
C       -0.449033357   3.488908259  -0.779523039
C       -1.791044477   3.028285181  -0.775760372
C        0.017298256   2.188024406  -2.863843723
C        2.153892942   0.895002876  -2.742470985
C        2.624361829   1.798859972  -1.684769375
C        1.796956776   2.862830480  -1.241551547
C        0.873873256   1.086072988  -3.322693460
C        0.463414730  -1.380803215  -3.293704004
C        1.789490008  -1.579227882  -2.693360018
C        2.619996789  -0.460910466  -2.422656534
C        0.013802122  -0.071020430  -3.602912425




CELL_PARAMETERS {cubic}
 1.00  0.00  0.00
 0.00  1.00  0.00
 0.00  0.00  1.00 

K_POINTS
 1
 0.0 0.0 0.0  1.0
